8
2147483647 19 19 36 46 93 73 31 
19 2147483647 31 25 78 34 39 66 
19 31 2147483647 46 6 46 48 73 
36 25 46 2147483647 9 98 27 4 
46 78 6 9 2147483647 12 52 52 
93 34 46 98 12 2147483647 7 43 
73 39 48 27 52 7 2147483647 50 
31 66 73 4 52 43 50 2147483647 
